Route #1: 1 1 52 53 20 18 23 45 13 19 30 1 
Route #2: 1 55 51 34 38 57 11 33 1 
Route #3: 1 41 17 54 43 22 56 35 25 1 
Route #4: 1 6 21 39 9 12 49 1 
Route #5: 1 31 50 61 59 26 10 60 1 
Route #6: 1 32 58 40 65 15 27 42 1 
Route #7: 1 7 47 16 48 63 46 2 29 1 
Route #8: 1 37 64 44 62 28 24 4 1 
Route #9: 1 5 8 3 14 36 1 

Cost 1819.25
Time 0.6494


 * Another infos *

 Iterations: 66 Time: 0.6494 sec - 0.0108 min - 0.0002 horas
0.0000 h 0.0108 min
Problem dimension: 66
